(set-logic QF_S)
(set-option :strings-exp true)
(set-option :produce-models true)
(declare-fun sigmaStar_0 () String)
(declare-fun sigmaStar_1 () String)
(declare-fun literal_2 () String)
(declare-fun x_3 () String)
(declare-fun literal_4 () String)
(declare-fun x_5 () String)
(assert (= literal_2 "\x65\x76\x61\x6c\x28\x27\x64\x6f\x63\x75\x6d\x65\x6e\x74\x2e\x66\x6f\x72\x6d\x2e"))
(assert (= x_3 (str.++ literal_2 sigmaStar_0)))
(assert (= literal_4 "\x2e\x64\x69\x73\x61\x62\x6c\x65\x64\x3d\x74\x72\x75\x65\x27\x29\x3b\x5c\x6e"))
(assert (= x_5 (str.++ x_3 literal_4)))
(assert (str.in.re x_5 (re.++ (re.* re.allchar) (re.++ (str.to.re "\x5c\x3c\x53\x43\x52\x49\x50\x54") (re.* re.allchar)))))
(check-sat)
(get-model)
